letting n =  10
letting blocks =  [[1, 3], [1, 4], [1, 9], [2, 9], [2, 10], [3, 2], [3, 4], [3, 5], [3, 10], [4, 7], [4, 9], [4, 10], [5, 4], [5, 5], [5, 8], [6, 1], [6, 4], [6, 9], [7, 1], [7, 4], [7, 9], [7, 10], [8, 1], [8, 7], [8, 10], [9, 9], [10, 3], [10, 6], [10, 7], [10, 8]]
